SCIP version 5.0.0 [precision: 8 byte] [memory: block] [mode: optimized] [LP solver: NONE] [GitHash: 3bbd232]
Copyright (C) 2002-2017 Konrad-Zuse-Zentrum fuer Informationstechnik Berlin (ZIB)

External codes: 
  Readline EditLine w  GNU library for command line editing (gnu.org/s/readline)
  CppAD 20160000.1     Algorithmic Differentiation of C++ algorithms developed by B. Bell (www.coin-or.org/CppAD)
  ZLIB 1.2.5           General purpose compression library by J. Gailly and M. Adler (zlib.net)
  GMP 6.1.2            GNU Multiple Precision Arithmetic Library developed by T. Granlund (gmplib.org)

user parameter file <scip.set> not found - using default parameters

read problem <../../Split_data/output/spectf/3/3_sample_spectf.logreg>
============

File name	:	../../Split_data/output/spectf/3/3_sample_spectf.logreg
Problem name 	:	3_sample_spectf
Number of data	:	214
Number of var	:	44
The given data has linear independence

[dim=1] time: 0.009308
[dim=2] time: 0.018499
[dim=3] time: 0.02665
[dim=4] time: 0.032979
[dim=5] time: 0.03993
[dim=6] time: 0.046639
[dim=7] time: 0.053282
[dim=8] time: 0.059923
[dim=9] time: 0.065611
[dim=10] Time of forward = 0.071553sec.
AIC: 118.525
k: 9

[dim=44] time: 0.040876
[dim=43] time: 0.061466
[dim=42] time: 0.076803
[dim=41] time: 0.092689
[dim=40] time: 0.107525
[dim=39] time: 0.126309
[dim=38] time: 0.14371
[dim=37] time: 0.170184
[dim=36] time: 0.185816
[dim=35] time: 0.202531
[dim=34] time: 0.213094
[dim=33] time: 0.227314
[dim=32] time: 0.238492
[dim=31] time: 0.249538
[dim=30] time: 0.260625
[dim=29] time: 0.271841
[dim=28] time: 0.282774
[dim=27] time: 0.289518
[dim=26] time: 0.297772
[dim=25] time: 0.306079
[dim=24] Time of backward = 0.313769sec.
AIC: 120.476
k: 25
